
Gurobi 7.0.1 (linux64) logging started Sun Jul  2 21:14:53 2017

Optimize a model with 21691 rows, 14464 columns and 65448 nonzeros
Variable types: 0 continuous, 14464 integer (14464 binary)
Coefficient statistics:
  Matrix range     [1e+00, 9e+00]
  Objective range  [1e+00, 1e+00]
  Bounds range     [1e+00, 1e+00]
  RHS range        [1e+00, 5e+01]
Presolve removed 20815 rows and 13584 columns
Presolve time: 0.05s
Presolved: 876 rows, 880 columns, 6069 nonzeros
Variable types: 0 continuous, 880 integer (880 binary)

Root relaxation: objective 4.879412e+01, 71 iterations, 0.00 seconds

    Nodes    |    Current Node    |     Objective Bounds      |     Work
 Expl Unexpl |  Obj  Depth IntInf | Incumbent    BestBd   Gap | It/Node Time

     0     0   48.79412    0   48          -   48.79412      -     -    0s
     0     0   48.00000    0    9          -   48.00000      -     -    0s
     0     0   48.00000    0    2          -   48.00000      -     -    0s
     0     0   48.00000    0    2          -   48.00000      -     -    0s
     0     2   48.00000    0    2          -   48.00000      -     -    0s
*  264   196              14      36.0000000   43.05128  19.6%   5.8    1s
*  479   216              28      40.0000000   43.00000  7.50%   5.0    1s
* 2116   114              47      41.0000000   42.00000  2.44%   3.2    3s

Cutting planes:
  Gomory: 2
  Clique: 21
  Inf proof: 1
  Zero half: 1
  Lazy constraints: 360

Explored 3064 nodes (9056 simplex iterations) in 3.46 seconds
Thread count was 12 (of 12 available processors)

Solution count 3: 41 40 36 
Pool objective bound 41

Optimal solution found (tolerance 1.00e-04)
Best objective 4.100000000000e+01, best bound 4.100000000000e+01, gap 0.0000%
Optimize a model with 21691 rows, 14464 columns and 65448 nonzeros
Variable types: 0 continuous, 14464 integer (14464 binary)
Coefficient statistics:
  Matrix range     [1e+00, 9e+00]
  Objective range  [2e-01, 8e-01]
  Bounds range     [1e+00, 1e+00]
  RHS range        [1e+00, 5e+01]
Presolve removed 20815 rows and 13584 columns
Presolve time: 0.03s
Presolved: 876 rows, 880 columns, 6069 nonzeros

Loaded MIP start with objective 2.44249e-15

Variable types: 0 continuous, 880 integer (880 binary)

Root relaxation: objective 7.794118e+00, 74 iterations, 0.00 seconds

    Nodes    |    Current Node    |     Objective Bounds      |     Work
 Expl Unexpl |  Obj  Depth IntInf | Incumbent    BestBd   Gap | It/Node Time

     0     0    7.79412    0   48    0.00000    7.79412      -     -    0s
     0     0    7.00000    0    9    0.00000    7.00000      -     -    0s
     0     0    7.00000    0    2    0.00000    7.00000      -     -    0s
     0     0    7.00000    0    2    0.00000    7.00000      -     -    0s
     0     2    7.00000    0    2    0.00000    7.00000      -     -    0s
*  217    81              22       0.9400000    3.12000   232%   3.8    1s
H  247    65                       1.7600000    3.12000  77.3%   3.7    1s
*  288    18              19       2.5800000    3.12000  20.9%   3.5    1s

Cutting planes:
  Gomory: 2
  Clique: 21
  Zero half: 1
  Lazy constraints: 135

Explored 328 nodes (1236 simplex iterations) in 1.57 seconds
Thread count was 12 (of 12 available processors)

Solution count 4: 2.58 1.76 0.94 2.44249e-15 
Pool objective bound 2.58

Optimal solution found (tolerance 1.00e-04)
Best objective 2.580000000000e+00, best bound 2.580000000000e+00, gap 0.0000%
Optimize a model with 21691 rows, 14464 columns and 65448 nonzeros
Variable types: 0 continuous, 14464 integer (14464 binary)
Coefficient statistics:
  Matrix range     [1e+00, 9e+00]
  Objective range  [1e-01, 9e-01]
  Bounds range     [1e+00, 1e+00]
  RHS range        [1e+00, 5e+01]
Presolve removed 20815 rows and 13584 columns
Presolve time: 0.03s
Presolved: 876 rows, 880 columns, 6069 nonzeros

Loaded MIP start with objective 8.88178e-16

Variable types: 0 continuous, 880 integer (880 binary)

Root relaxation: objective 3.632827e+00, 74 iterations, 0.00 seconds

    Nodes    |    Current Node    |     Objective Bounds      |     Work
 Expl Unexpl |  Obj  Depth IntInf | Incumbent    BestBd   Gap | It/Node Time

     0     0    3.63283    0   48    0.00000    3.63283      -     -    0s
     0     0    2.83871    0    9    0.00000    2.83871      -     -    0s
     0     0    2.83871    0    2    0.00000    2.83871      -     -    0s
     0     0    2.83871    0    2    0.00000    2.83871      -     -    0s
     0     2    2.83871    0    2    0.00000    2.83871      -     -    0s

Cutting planes:
  Gomory: 2
  Clique: 21
  Zero half: 1
  Lazy constraints: 20

Explored 42 nodes (522 simplex iterations) in 0.59 seconds
Thread count was 12 (of 12 available processors)

Solution count 1: 8.88178e-16 
Pool objective bound 8.88178e-16

Optimal solution found (tolerance 1.00e-04)
Best objective 8.881784197001e-16, best bound 8.881784197001e-16, gap -
